unknown
(model
; cardinality of BoundSet is 3
(declare-sort BoundSet 0)
; rep: @uc_BoundSet_0
; rep: @uc_BoundSet_1
; rep: @uc_BoundSet_2
; cardinality of UnboundSet is 1
(declare-sort UnboundSet 0)
(declare-fun groundTerm_4 () UnboundSet)
(define-fun PlaysTogether ((BOUND_VARIABLE_434 BoundSet) (BOUND_VARIABLE_435 BoundSet)) Bool true)
(define-fun IsOnPileOfRocks ((BOUND_VARIABLE_438 BoundSet)) Bool true)
(define-fun IsInResidentialArea ((BOUND_VARIABLE_438 BoundSet)) Bool true)
(define-fun IsOutside ((BOUND_VARIABLE_438 BoundSet)) Bool false)
)
sat
(model
; cardinality of BoundSet is 1
(declare-sort BoundSet 0)
; rep: @uc_BoundSet_0
; cardinality of UnboundSet is 1
(declare-sort UnboundSet 0)
(declare-fun groundTerm_6 () UnboundSet)
(define-fun PlaysTogether ((BOUND_VARIABLE_470 BoundSet) (BOUND_VARIABLE_471 BoundSet)) Bool true)
(define-fun IsOnPileOfRocks ((BOUND_VARIABLE_474 BoundSet)) Bool true)
(define-fun IsInResidentialArea ((BOUND_VARIABLE_474 BoundSet)) Bool true)
(define-fun IsOutside ((BOUND_VARIABLE_474 BoundSet)) Bool false)
)
